************************************************************************
file with basedata            : mm48_.bas
initial value random generator: 14104320
************************************************************************
projects                      :  1
jobs (incl. supersource/sink ):  12
horizon                       :  77
RESOURCES
  - renewable                 :  2   R
  - nonrenewable              :  2   N
  - doubly constrained        :  0   D
************************************************************************
PROJECT INFORMATION:
pronr.  #jobs rel.date duedate tardcost  MPM-Time
    1     10      0       10        2       10
************************************************************************
PRECEDENCE RELATIONS:
jobnr.    #modes  #successors   successors
   0        1          3           1   2   3
   1        3          2           5   9
   2        3          3           4   8  10
   3        3          2           5   9
   4        3          1           6
   5        3          2           7   8
   6        3          1           9
   7        3          1          10
   8        3          1          11
   9        3          1          11
  10        3          1          11
  11        1          0        
************************************************************************
REQUESTS/DURATIONS:
jobnr. mode duration  R 1  R 2  R 3  R 4  E(W 1)
------------------------------------------------------------------------
  0      1     0       0    0    0    0     0
  1      1     3       6    1   10    7    75
  2      1     2       7    7    5    6    50
  3      1     1       5    6    8    2    21
  4      1     2       6    7    6    5    48
  5      1     1       3    5    6    6    20
  6      1     1       6    4    9    6    25
  7      1     1       8    6   10    7    31
  8      1     6       7    8    9    8    192
  9      1     5       2   10    7    7    130
 10      1     5       7    4    3    9    115
 11      1     0       0    0    0    0     0
************************************************************************
RESOURCEAVAILABILITIES:
  R 1
   167
************************************************************************
RESOURCE LIMITS:
jobnr.  l(R 1)  u(R 1)
------------------------------------------------------------------------
  0        0       0
  1       13      25
  2       14      25
  3       11      21
  4       13      24
  5       11      20
  6       13      25
  7       16      31
  8       17      32
  9       14      26
 10       13      23
 11        0       0
************************************************************************
SCENARIOS:
------------------------------------------------------------------------
RESOURCE k = 1
s = 1: (0, 57, 74, 23, 35, 29, 39, 30, 177, 88, 155, 0)
s = 2: (0, 40, 74, 21, 48, 16, 24, 36, 185, 133, 122, 0)
s = 3: (0, 86, 56, 20, 29, 23, 31, 38, 138, 89, 96, 0)
s = 4: (0, 71, 44, 14, 46, 13, 19, 37, 170, 101, 128, 0)
s = 5: (0, 60, 29, 22, 48, 16, 18, 22, 244, 179, 144, 0)
s = 6: (0, 70, 68, 15, 64, 26, 23, 29, 237, 156, 66, 0)
s = 7: (0, 76, 49, 33, 82, 26, 21, 27, 156, 163, 118, 0)
s = 8: (0, 53, 39, 18, 56, 20, 26, 23, 321, 218, 84, 0)
s = 9: (0, 99, 39, 35, 55, 17, 30, 49, 189, 141, 108, 0)
s = 10: (0, 64, 37, 14, 51, 15, 20, 43, 243, 148, 154, 0)
s = 11: (0, 62, 49, 26, 50, 23, 28, 26, 284, 105, 175, 0)
s = 12: (0, 73, 43, 33, 57, 17, 23, 21, 150, 124, 218, 0)
s = 13: (0, 98, 59, 26, 60, 14, 28, 25, 251, 98, 122, 0)
s = 14: (0, 56, 43, 16, 35, 12, 16, 23, 198, 88, 116, 0)
s = 15: (0, 58, 51, 26, 54, 21, 18, 30, 177, 110, 74, 0)
s = 16: (0, 73, 48, 16, 52, 15, 21, 19, 162, 163, 138, 0)
s = 17: (0, 89, 72, 19, 41, 26, 25, 20, 138, 104, 118, 0)
s = 18: (0, 49, 92, 17, 45, 22, 30, 46, 148, 110, 132, 0)
s = 19: (0, 60, 51, 24, 46, 18, 30, 48, 126, 101, 96, 0)
s = 20: (0, 81, 55, 19, 38, 31, 21, 23, 230, 126, 123, 0)
s = 21: (0, 100, 69, 20, 39, 27, 26, 35, 210, 133, 103, 0)
s = 22: (0, 47, 49, 12, 41, 18, 27, 24, 210, 130, 101, 0)
s = 23: (0, 87, 53, 19, 33, 19, 16, 39, 203, 96, 111, 0)
s = 24: (0, 75, 33, 17, 66, 14, 31, 19, 234, 118, 197, 0)
s = 25: (0, 105, 63, 31, 49, 27, 20, 35, 140, 127, 122, 0)
s = 26: (0, 135, 43, 30, 58, 29, 31, 54, 114, 180, 111, 0)
s = 27: (0, 62, 31, 21, 44, 12, 38, 46, 121, 186, 145, 0)
s = 28: (0, 87, 48, 19, 47, 15, 20, 48, 266, 90, 96, 0)
s = 29: (0, 49, 50, 21, 58, 14, 30, 33, 176, 91, 100, 0)
s = 30: (0, 83, 37, 26, 43, 18, 23, 22, 211, 160, 134, 0)
s = 31: (0, 80, 37, 39, 38, 39, 17, 39, 180, 167, 148, 0)
s = 32: (0, 41, 57, 15, 45, 29, 34, 37, 187, 141, 199, 0)
s = 33: (0, 122, 69, 35, 51, 17, 23, 38, 147, 106, 131, 0)
s = 34: (0, 90, 54, 16, 62, 14, 24, 31, 148, 118, 197, 0)
s = 35: (0, 49, 53, 23, 59, 18, 20, 37, 287, 163, 126, 0)
s = 36: (0, 46, 64, 20, 53, 13, 29, 48, 295, 119, 128, 0)
s = 37: (0, 85, 55, 19, 53, 16, 27, 47, 196, 209, 92, 0)
s = 38: (0, 105, 28, 33, 34, 19, 24, 46, 181, 103, 180, 0)
s = 39: (0, 81, 46, 20, 55, 23, 21, 20, 143, 243, 200, 0)
s = 40: (0, 95, 39, 23, 50, 31, 21, 21, 183, 89, 133, 0)
s = 41: (0, 66, 34, 12, 49, 13, 24, 26, 190, 200, 68, 0)
s = 42: (0, 82, 46, 18, 48, 24, 22, 21, 229, 81, 95, 0)
s = 43: (0, 57, 32, 12, 35, 15, 20, 37, 186, 105, 144, 0)
s = 44: (0, 67, 56, 30, 75, 21, 31, 29, 139, 172, 59, 0)
s = 45: (0, 118, 69, 18, 48, 27, 24, 32, 205, 171, 128, 0)
s = 46: (0, 77, 72, 21, 60, 25, 47, 23, 119, 116, 108, 0)
s = 47: (0, 49, 84, 15, 33, 24, 23, 48, 178, 84, 76, 0)
s = 48: (0, 55, 28, 28, 39, 23, 34, 33, 220, 90, 90, 0)
s = 49: (0, 76, 64, 27, 51, 14, 29, 23, 217, 76, 148, 0)
s = 50: (0, 83, 51, 18, 76, 23, 30, 24, 163, 131, 79, 0)
s = 51: (0, 108, 49, 28, 86, 18, 23, 39, 206, 140, 110, 0)
s = 52: (0, 60, 59, 21, 46, 24, 22, 30, 304, 169, 196, 0)
s = 53: (0, 61, 62, 22, 61, 32, 19, 42, 265, 133, 106, 0)
s = 54: (0, 64, 59, 14, 84, 18, 43, 26, 239, 150, 99, 0)
s = 55: (0, 68, 37, 16, 35, 28, 25, 42, 288, 91, 105, 0)
s = 56: (0, 103, 26, 29, 46, 15, 18, 29, 208, 191, 109, 0)
s = 57: (0, 112, 63, 19, 33, 17, 37, 25, 184, 114, 120, 0)
s = 58: (0, 74, 58, 23, 34, 21, 22, 26, 119, 150, 120, 0)
s = 59: (0, 57, 44, 22, 31, 21, 16, 22, 252, 165, 119, 0)
s = 60: (0, 80, 46, 25, 43, 22, 31, 33, 160, 120, 113, 0)
s = 61: (0, 93, 39, 21, 38, 15, 28, 38, 146, 133, 115, 0)
s = 62: (0, 63, 45, 18, 44, 19, 30, 51, 265, 157, 84, 0)
s = 63: (0, 88, 46, 13, 37, 17, 23, 22, 237, 102, 104, 0)
s = 64: (0, 75, 85, 30, 48, 22, 26, 36, 179, 200, 78, 0)
s = 65: (0, 65, 50, 13, 66, 13, 48, 30, 182, 122, 148, 0)
s = 66: (0, 67, 70, 24, 43, 22, 37, 40, 100, 144, 79, 0)
s = 67: (0, 68, 45, 13, 59, 26, 19, 28, 183, 77, 110, 0)
s = 68: (0, 81, 84, 14, 37, 24, 17, 44, 283, 96, 157, 0)
s = 69: (0, 59, 43, 12, 70, 18, 15, 19, 145, 150, 131, 0)
s = 70: (0, 71, 30, 13, 41, 21, 22, 29, 202, 120, 107, 0)
s = 71: (0, 83, 65, 34, 40, 21, 28, 27, 182, 104, 111, 0)
s = 72: (0, 77, 46, 15, 70, 28, 24, 27, 149, 92, 136, 0)
s = 73: (0, 53, 53, 14, 69, 16, 37, 32, 188, 193, 91, 0)
s = 74: (0, 50, 52, 17, 43, 17, 32, 24, 275, 121, 112, 0)
s = 75: (0, 56, 38, 15, 46, 20, 22, 30, 185, 134, 146, 0)
s = 76: (0, 79, 46, 31, 36, 23, 29, 24, 218, 106, 148, 0)
s = 77: (0, 84, 41, 27, 53, 13, 31, 26, 113, 124, 90, 0)
s = 78: (0, 79, 42, 32, 65, 20, 25, 33, 202, 125, 64, 0)
s = 79: (0, 55, 51, 29, 59, 20, 21, 34, 243, 177, 71, 0)
s = 80: (0, 63, 30, 15, 59, 28, 26, 21, 270, 72, 150, 0)
s = 81: (0, 107, 64, 12, 46, 18, 17, 39, 191, 137, 143, 0)
s = 82: (0, 75, 48, 13, 36, 14, 22, 41, 294, 98, 154, 0)
s = 83: (0, 55, 54, 27, 53, 16, 33, 30, 167, 171, 111, 0)
s = 84: (0, 97, 78, 20, 26, 18, 30, 27, 190, 127, 63, 0)
s = 85: (0, 50, 38, 30, 43, 12, 29, 27, 257, 84, 113, 0)
s = 86: (0, 77, 36, 25, 46, 18, 26, 28, 242, 151, 62, 0)
s = 87: (0, 66, 35, 35, 46, 20, 25, 35, 181, 114, 95, 0)
s = 88: (0, 106, 54, 17, 52, 25, 28, 22, 181, 167, 150, 0)
s = 89: (0, 71, 34, 18, 34, 20, 24, 28, 123, 160, 194, 0)
s = 90: (0, 107, 72, 14, 46, 14, 22, 41, 134, 163, 111, 0)
s = 91: (0, 96, 53, 12, 55, 26, 26, 25, 192, 209, 88, 0)
s = 92: (0, 73, 42, 21, 57, 27, 34, 26, 149, 84, 112, 0)
s = 93: (0, 67, 47, 14, 62, 13, 23, 37, 209, 169, 86, 0)
s = 94: (0, 97, 32, 24, 48, 24, 32, 21, 177, 128, 95, 0)
s = 95: (0, 58, 41, 17, 78, 17, 18, 25, 304, 136, 90, 0)
s = 96: (0, 102, 45, 13, 57, 29, 27, 31, 182, 107, 134, 0)
s = 97: (0, 70, 36, 16, 51, 17, 16, 31, 166, 133, 129, 0)
s = 98: (0, 49, 51, 16, 46, 13, 22, 39, 161, 76, 118, 0)
s = 99: (0, 68, 64, 16, 49, 19, 23, 26, 187, 92, 131, 0)
s = 100: (0, 56, 48, 26, 29, 27, 19, 36, 274, 104, 118, 0)
s = 101: (0, 115, 49, 16, 55, 18, 24, 37, 174, 131, 114, 0)
s = 102: (0, 84, 65, 29, 41, 15, 35, 35, 230, 86, 98, 0)
s = 103: (0, 52, 42, 13, 47, 35, 21, 44, 259, 76, 72, 0)
s = 104: (0, 75, 36, 14, 54, 27, 22, 24, 245, 169, 154, 0)
s = 105: (0, 65, 43, 20, 45, 21, 29, 34, 155, 100, 134, 0)
s = 106: (0, 112, 53, 20, 51, 22, 21, 38, 199, 140, 90, 0)
s = 107: (0, 50, 42, 20, 58, 30, 19, 26, 117, 75, 96, 0)
s = 108: (0, 44, 66, 25, 33, 16, 29, 24, 177, 168, 65, 0)
s = 109: (0, 73, 42, 16, 46, 26, 19, 32, 240, 141, 79, 0)
s = 110: (0, 62, 44, 15, 46, 21, 21, 42, 136, 91, 102, 0)
s = 111: (0, 117, 39, 21, 37, 30, 42, 25, 193, 187, 237, 0)
s = 112: (0, 59, 83, 13, 37, 18, 24, 45, 172, 71, 92, 0)
s = 113: (0, 62, 46, 16, 35, 22, 18, 41, 370, 185, 122, 0)
s = 114: (0, 75, 45, 30, 47, 13, 19, 31, 240, 188, 121, 0)
s = 115: (0, 65, 59, 21, 43, 25, 24, 33, 119, 134, 70, 0)
s = 116: (0, 86, 72, 15, 59, 26, 15, 38, 308, 153, 134, 0)
s = 117: (0, 125, 47, 24, 53, 19, 23, 22, 113, 120, 63, 0)
s = 118: (0, 70, 37, 19, 70, 12, 18, 17, 203, 198, 106, 0)
s = 119: (0, 60, 67, 20, 34, 17, 29, 41, 299, 132, 136, 0)
s = 120: (0, 43, 46, 16, 59, 35, 27, 38, 125, 110, 130, 0)
s = 121: (0, 94, 70, 22, 31, 24, 32, 23, 232, 112, 144, 0)
s = 122: (0, 79, 32, 14, 40, 27, 19, 17, 229, 243, 133, 0)
s = 123: (0, 69, 83, 23, 81, 27, 39, 27, 187, 84, 77, 0)
s = 124: (0, 113, 44, 16, 55, 17, 35, 23, 197, 106, 151, 0)
s = 125: (0, 126, 75, 15, 56, 12, 35, 40, 227, 178, 77, 0)
s = 126: (0, 92, 70, 40, 50, 31, 17, 38, 225, 207, 186, 0)
s = 127: (0, 72, 96, 15, 41, 18, 22, 25, 195, 133, 91, 0)
s = 128: (0, 53, 59, 27, 50, 28, 22, 29, 208, 213, 91, 0)
s = 129: (0, 51, 61, 18, 56, 18, 18, 31, 211, 90, 81, 0)
s = 130: (0, 80, 54, 28, 49, 24, 23, 26, 306, 104, 119, 0)
s = 131: (0, 104, 75, 17, 57, 20, 20, 51, 167, 191, 149, 0)
s = 132: (0, 50, 50, 37, 48, 31, 17, 36, 135, 140, 93, 0)
s = 133: (0, 43, 51, 32, 52, 22, 28, 33, 121, 135, 180, 0)
s = 134: (0, 60, 62, 15, 63, 13, 32, 34, 232, 75, 116, 0)
s = 135: (0, 101, 57, 17, 26, 15, 32, 20, 215, 170, 134, 0)
s = 136: (0, 85, 40, 29, 49, 17, 28, 33, 218, 155, 85, 0)
s = 137: (0, 60, 43, 19, 66, 16, 29, 30, 249, 118, 98, 0)
s = 138: (0, 112, 30, 21, 56, 15, 24, 29, 169, 159, 119, 0)
s = 139: (0, 66, 68, 23, 34, 15, 21, 31, 151, 203, 105, 0)
s = 140: (0, 61, 81, 19, 61, 14, 31, 44, 110, 88, 88, 0)
s = 141: (0, 40, 53, 25, 57, 25, 34, 25, 100, 191, 123, 0)
s = 142: (0, 90, 36, 28, 40, 16, 28, 36, 159, 168, 132, 0)
s = 143: (0, 57, 36, 25, 31, 21, 31, 30, 103, 107, 98, 0)
s = 144: (0, 44, 60, 15, 34, 20, 26, 25, 190, 173, 101, 0)
s = 145: (0, 46, 44, 13, 33, 22, 18, 36, 134, 107, 134, 0)
s = 146: (0, 65, 63, 17, 72, 11, 16, 39, 161, 121, 137, 0)
s = 147: (0, 47, 55, 13, 61, 17, 26, 25, 157, 118, 138, 0)
s = 148: (0, 69, 40, 28, 41, 30, 31, 22, 185, 179, 131, 0)
s = 149: (0, 61, 55, 24, 35, 22, 24, 34, 195, 102, 74, 0)
s = 150: (0, 61, 49, 25, 62, 13, 33, 19, 208, 170, 158, 0)
s = 151: (0, 70, 50, 12, 73, 25, 26, 32, 174, 140, 127, 0)
s = 152: (0, 81, 33, 18, 46, 15, 27, 28, 137, 160, 141, 0)
s = 153: (0, 91, 64, 18, 38, 18, 37, 21, 141, 177, 121, 0)
s = 154: (0, 58, 50, 22, 83, 28, 37, 34, 146, 179, 86, 0)
s = 155: (0, 61, 38, 30, 35, 21, 24, 24, 294, 129, 69, 0)
s = 156: (0, 63, 34, 26, 41, 11, 20, 19, 105, 129, 93, 0)
s = 157: (0, 63, 40, 16, 42, 24, 19, 38, 335, 106, 95, 0)
s = 158: (0, 65, 38, 27, 37, 14, 23, 21, 188, 108, 147, 0)
s = 159: (0, 42, 49, 14, 53, 17, 33, 39, 168, 118, 130, 0)
s = 160: (0, 73, 67, 26, 78, 27, 30, 43, 199, 155, 108, 0)
s = 161: (0, 65, 78, 18, 73, 20, 15, 20, 196, 87, 75, 0)
s = 162: (0, 106, 45, 27, 41, 15, 32, 26, 192, 100, 78, 0)
s = 163: (0, 55, 47, 23, 41, 18, 18, 33, 121, 251, 118, 0)
s = 164: (0, 72, 59, 19, 56, 15, 42, 36, 172, 98, 128, 0)
s = 165: (0, 67, 41, 25, 54, 15, 19, 32, 220, 118, 110, 0)
s = 166: (0, 73, 47, 22, 44, 17, 20, 33, 124, 123, 196, 0)
s = 167: (0, 64, 46, 20, 49, 12, 21, 30, 159, 115, 107, 0)
s = 168: (0, 95, 63, 22, 36, 17, 22, 46, 253, 130, 100, 0)
s = 169: (0, 54, 80, 19, 28, 15, 35, 27, 275, 80, 176, 0)
s = 170: (0, 74, 57, 15, 47, 20, 32, 41, 207, 157, 86, 0)
s = 171: (0, 49, 45, 20, 34, 19, 20, 25, 171, 130, 126, 0)
s = 172: (0, 68, 38, 19, 27, 18, 20, 29, 145, 144, 106, 0)
s = 173: (0, 50, 36, 15, 49, 16, 19, 30, 184, 128, 102, 0)
s = 174: (0, 47, 33, 19, 44, 22, 20, 25, 127, 128, 143, 0)
s = 175: (0, 85, 46, 20, 64, 14, 15, 20, 228, 119, 122, 0)
s = 176: (0, 51, 68, 26, 34, 18, 20, 24, 222, 91, 137, 0)
s = 177: (0, 47, 58, 30, 41, 20, 23, 17, 253, 78, 184, 0)
s = 178: (0, 48, 36, 12, 54, 16, 23, 33, 172, 203, 73, 0)
s = 179: (0, 59, 57, 18, 52, 21, 32, 56, 288, 199, 115, 0)
s = 180: (0, 75, 33, 15, 49, 23, 26, 25, 135, 120, 97, 0)
s = 181: (0, 61, 35, 21, 37, 31, 27, 19, 135, 165, 100, 0)
s = 182: (0, 72, 56, 14, 46, 22, 18, 23, 113, 104, 87, 0)
s = 183: (0, 93, 48, 17, 56, 21, 24, 28, 168, 144, 116, 0)
s = 184: (0, 76, 49, 22, 37, 12, 22, 40, 160, 167, 149, 0)
s = 185: (0, 44, 51, 21, 58, 12, 16, 52, 276, 161, 96, 0)
s = 186: (0, 71, 52, 23, 42, 18, 27, 22, 128, 134, 106, 0)
s = 187: (0, 66, 36, 29, 56, 12, 22, 40, 156, 109, 63, 0)
s = 188: (0, 88, 62, 24, 61, 16, 16, 37, 249, 150, 112, 0)
s = 189: (0, 78, 51, 15, 58, 24, 29, 33, 232, 219, 110, 0)
s = 190: (0, 75, 30, 22, 41, 28, 14, 34, 211, 76, 135, 0)
s = 191: (0, 87, 37, 17, 43, 23, 24, 28, 187, 92, 107, 0)
s = 192: (0, 114, 57, 21, 43, 22, 22, 33, 188, 99, 122, 0)
s = 193: (0, 70, 59, 22, 57, 14, 19, 30, 143, 144, 204, 0)
s = 194: (0, 86, 34, 25, 88, 13, 32, 23, 132, 137, 133, 0)
s = 195: (0, 109, 39, 30, 54, 13, 23, 35, 201, 159, 108, 0)
s = 196: (0, 44, 52, 22, 78, 14, 26, 46, 168, 160, 93, 0)
s = 197: (0, 81, 59, 27, 56, 26, 19, 31, 170, 140, 91, 0)
s = 198: (0, 95, 52, 37, 52, 29, 33, 26, 211, 123, 91, 0)
s = 199: (0, 60, 55, 20, 52, 18, 18, 25, 187, 144, 99, 0)
s = 200: (0, 122, 54, 12, 27, 16, 20, 37, 179, 129, 100, 0)
************************************************************************
ES/LS-VALUES:
jobnr.   ES(i)    LS(i)
------------------------------------------------------------------------
  0        0        0
  1        0       56
  2        0       57
  3        0       60
  4        3       61
  5        5       62
  6        6       65
  7        6       64
  8        6       65
  9        7       67
 10        7       66
 11       17       77
************************************************************************
BIG-M-VALUES:
M1 = 22, M2 = 370
************************************************************************
